(declare-fun temp11295_2 () (_ BitVec 64))
(declare-fun temp11295_1 () (_ BitVec 64))
(declare-fun temp11295_3 () (_ BitVec 64))
(declare-fun var2166536 () (_ BitVec 64))
(declare-fun temp11295_5 () (_ BitVec 64))
(declare-fun temp11295_4 () (_ BitVec 64))
(declare-fun temp11295_6 () (_ BitVec 64))
(declare-fun var4659636 () (_ BitVec 64))
(declare-fun temp11295_7 () (_ BitVec 64))
(declare-fun var5703478 () (_ BitVec 64))
(declare-fun var5902556 () (_ BitVec 64))
(declare-fun temp11295_8 () (_ BitVec 64))
(declare-fun var6099287 () (_ BitVec 64))
(declare-fun temp11295_9 () (_ BitVec 64))
(declare-fun var6099288 () (_ BitVec 64))
(declare-fun temp11295_11 () (_ BitVec 64))
(declare-fun temp11295_10 () (_ BitVec 64))
(declare-fun temp11295_12 () (_ BitVec 64))
(declare-fun var6950664 () (_ BitVec 64))
(declare-fun temp11295_14 () (_ BitVec 64))
(declare-fun temp11295_13 () (_ BitVec 64))
(declare-fun temp11295_15 () (_ BitVec 64))
(declare-fun var7212791 () (_ BitVec 64))
(declare-fun temp11295_16 () (_ BitVec 64))
(declare-fun var6817832 () (_ BitVec 64))
(declare-fun var6817874 () (_ BitVec 64))
(declare-fun temp11295_18 () (_ BitVec 64))
(declare-fun temp11295_17 () (_ BitVec 64))
(declare-fun temp11295_19 () (_ BitVec 64))
(declare-fun var7670776 () (_ BitVec 64))
(declare-fun temp11295_20 () (_ BitVec 64))
(declare-fun var7670814 () (_ BitVec 64))
(declare-fun temp11295_21 () (_ BitVec 64))
(declare-fun var6817819 () (_ BitVec 64))
(declare-fun var6817818 () (_ BitVec 64))
(declare-fun temp11295_22 () (_ BitVec 64))
(declare-fun var6817823 () (_ BitVec 64))
(declare-fun temp11295_23 () (_ BitVec 64))
(declare-fun var6817825 () (_ BitVec 64))
(declare-fun temp11295_24 () (_ BitVec 64))
(declare-fun temp11295_25 () (_ BitVec 64))
(declare-fun var8718542 () (_ BitVec 64))
(declare-fun temp11295_26 () (_ BitVec 64))
(declare-fun temp11295_27 () (_ BitVec 64))
(declare-fun var8718588 () (_ BitVec 64))
(declare-fun var8718619 () (_ BitVec 64))
(declare-fun var8718540 () (_ BitVec 64))
(declare-fun var204433 () (_ BitVec 64))
(declare-fun var204435 () (_ BitVec 64))
(declare-fun var9969375 () (_ BitVec 64))
(declare-fun temp11295_29 () (_ BitVec 64))
(declare-fun temp11295_28 () (_ BitVec 64))
(assert (= temp11295_2 #x0000000000000000))
(assert (= temp11295_1 temp11295_2))
(assert (= temp11295_3 #x0000000000000005))
(assert (= var2166536 temp11295_3))
(assert (= temp11295_5 #x0000000000000000))
(assert (= temp11295_4 temp11295_5))
(assert (= temp11295_6 #x0000000000000000))
(assert (= var4659636 temp11295_6))
(assert (= temp11295_7 #x0000000000000000))
(assert (= var5703478 temp11295_7))
(assert (= var5902556 var5703478))
(assert (= temp11295_8 #x0000000000000000))
(assert (= var6099287 temp11295_8))
(assert (= temp11295_9 #x0000000000000000))
(assert (= var6099288 temp11295_9))
(assert (= temp11295_11 #x0000000000000000))
(assert (= temp11295_10 temp11295_11))
(assert (= temp11295_12 #x0000000000000005))
(assert (= var6950664 temp11295_12))
(assert (= temp11295_14 #x0000000000000000))
(assert (= temp11295_13 temp11295_14))
(assert (= temp11295_15 #x0000000000000000))
(assert (= var7212791 temp11295_15))
(assert (= temp11295_16 #x0000000000000000))
(assert (= var6817832 temp11295_16))
(assert (= var6817874 var6817832))
(assert (= temp11295_18 #x0000000000000000))
(assert (= temp11295_17 temp11295_18))
(assert (= temp11295_19 #x0000000000000001))
(assert (= var7670776 temp11295_19))
(assert (= temp11295_20 #x0000000000000000))
(assert (= var7670814 temp11295_20))
(assert (= temp11295_21 #x0000000000000000))
(assert (= var7670814 temp11295_21))
(assert (= var6817819 var6817874))
(assert (= var6817818 var6817819))
(assert (= temp11295_22 #x0000000000000001))
(assert (= var6817823 (bvand var6817818 temp11295_22)))
(assert (= temp11295_23 #x0000000000000000))
(assert (= var6817825
   (ite (= var6817823 temp11295_23) #x0000000000000001 #x0000000000000000)))
(assert (= temp11295_24 #x0000000000000001))
(assert (= var6817825 temp11295_24))
(assert (= temp11295_25 #x0000000000000001))
(assert (= var8718542 temp11295_25))
(assert (= temp11295_26 #x0000000000000002))
(assert (= temp11295_27 #x0000000000000000))
(assert (= var8718588 (ite (= var8718542 #x0000000000000001) temp11295_26 temp11295_27)))
(assert (= var8718619 var8718588))
(assert (= var8718540 var8718619))
(assert (= var204433 var8718540))
(assert (= var204435 var204433))
(assert (= var9969375 var204435))
(assert (= temp11295_29 #x0000000000000005))
(assert (= temp11295_28 temp11295_29))
(model-add temp11295_2 () (_ BitVec 64) #x0000000000000000)
(model-add temp11295_1 () (_ BitVec 64) #x0000000000000000)
(model-add temp11295_3 () (_ BitVec 64) #x0000000000000005)
(model-add var2166536 () (_ BitVec 64) #x0000000000000005)
(model-add temp11295_5 () (_ BitVec 64) #x0000000000000000)
(model-add temp11295_4 () (_ BitVec 64) #x0000000000000000)
(model-add temp11295_6 () (_ BitVec 64) #x0000000000000000)
(model-add var4659636 () (_ BitVec 64) #x0000000000000000)
(model-add temp11295_7 () (_ BitVec 64) #x0000000000000000)
(model-add var5703478 () (_ BitVec 64) #x0000000000000000)
(model-add var5902556 () (_ BitVec 64) #x0000000000000000)
(model-add temp11295_8 () (_ BitVec 64) #x0000000000000000)
(model-add var6099287 () (_ BitVec 64) #x0000000000000000)
(model-add temp11295_9 () (_ BitVec 64) #x0000000000000000)
(model-add var6099288 () (_ BitVec 64) #x0000000000000000)
(model-add temp11295_11 () (_ BitVec 64) #x0000000000000000)
(model-add temp11295_10 () (_ BitVec 64) #x0000000000000000)
(model-add temp11295_12 () (_ BitVec 64) #x0000000000000005)
(model-add var6950664 () (_ BitVec 64) #x0000000000000005)
(model-add temp11295_14 () (_ BitVec 64) #x0000000000000000)
(model-add temp11295_13 () (_ BitVec 64) #x0000000000000000)
(model-add temp11295_15 () (_ BitVec 64) #x0000000000000000)
(model-add var7212791 () (_ BitVec 64) #x0000000000000000)
(model-add temp11295_16 () (_ BitVec 64) #x0000000000000000)
(model-add var6817832 () (_ BitVec 64) #x0000000000000000)
(model-add var6817874 () (_ BitVec 64) #x0000000000000000)
(model-add temp11295_18 () (_ BitVec 64) #x0000000000000000)
(model-add temp11295_17 () (_ BitVec 64) #x0000000000000000)
(model-add temp11295_19 () (_ BitVec 64) #x0000000000000001)
(model-add var7670776 () (_ BitVec 64) #x0000000000000001)
(model-add temp11295_20 () (_ BitVec 64) #x0000000000000000)
(model-add var7670814 () (_ BitVec 64) #x0000000000000000)
(model-add temp11295_21 () (_ BitVec 64) #x0000000000000000)






